17969 20774 18261
18741 20629 18079
16689 19872 18438
18941 20336 17997
17965 21905 17575
20321 19220 15697
19419 21120 17198
20078 19593 16439
17152 22410 16977
19941 20230 16727
20386 18729 14689
18313 21155 18033
17841 20306 18404
17070 22628 16596
19810 20844 16556
20521 17174 13998
20044 18608 16513
17081 22716 16401
20293 19674 15392
20309 19540 15300
18254 22351 16542
17670 21398 18190
19439 21320 16028
20419 18338 14974
17687 22002 17629
18583 21853 17104
19699 20500 17255
19229 20737 17694
17552 20851 18304
20162 20288 15221
18260 20786 18184
18804 21894 15811
18601 21465 17751
17108 22943 15830
